(set-logic HORN)

(declare-fun |state| ( Bool Bool Bool Bool Bool Bool Bool Bool Bool Bool Bool Bool Bool Bool Bool Bool Bool Int Int Int Int Int Int Int Int Int Int Int Int Int Int Int Int Int Int Int Int Int Int Int Int Int Int Int Int Int Int Int Int Int Int Int Int Int Int Int Int Int Int Int Int Int Bool Int Int Int Int Int Int Int Int Int Int Int Int Int Int Int Bool Int Int Int Int Int Int Int Int Int Int Int Int Int Int Int Bool Bool Bool Bool Bool Bool Bool Bool Bool Bool Bool Bool ) Bool)

(assert
  (forall ( (A Bool) (B Bool) (C Bool) (D Bool) (E Bool) (F Bool) (G Bool) (H Bool) (I Bool) (J Bool) (K Bool) (L Bool) (M Bool) (N Bool) (O Bool) (P Bool) (Q Bool) (R Int) (S Int) (T Int) (U Int) (V Int) (W Int) (X Int) (Y Int) (Z Int) (A1 Int) (B1 Int) (C1 Int) (D1 Int) (E1 Int) (F1 Int) (G1 Int) (H1 Int) (I1 Int) (J1 Int) (K1 Int) (L1 Int) (M1 Int) (N1 Int) (O1 Int) (P1 Int) (Q1 Int) (R1 Int) (S1 Int) (T1 Int) (U1 Int) (V1 Int) (W1 Int) (X1 Int) (Y1 Int) (Z1 Int) (A2 Int) (B2 Int) (C2 Int) (D2 Int) (E2 Int) (F2 Int) (G2 Int) (H2 Int) (I2 Int) (J2 Int) (K2 Bool) (L2 Int) (M2 Int) (N2 Int) (O2 Int) (P2 Int) (Q2 Int) (R2 Int) (S2 Int) (T2 Int) (U2 Int) (V2 Int) (W2 Int) (X2 Int) (Y2 Int) (Z2 Int) (A3 Bool) (B3 Int) (C3 Int) (D3 Int) (E3 Int) (F3 Int) (G3 Int) (H3 Int) (I3 Int) (J3 Int) (K3 Int) (L3 Int) (M3 Int) (N3 Int) (O3 Int) (P3 Int) (Q3 Bool) (R3 Bool) (S3 Bool) (T3 Bool) (U3 Bool) (V3 Bool) (W3 Bool) (X3 Bool) (Y3 Bool) (Z3 Bool) (A4 Bool) (B4 Bool) ) 
    (=>
      (and
        (let ((a!1 (= (or (and (not C)
                       (not D)
                       (not E)
                       (not F)
                       (not G)
                       (not H)
                       (not I)
                       (not J)
                       (not K)
                       (not L)
                       (not M)
                       (not N))
                  (and (not C)
                       (not D)
                       (not E)
                       (not F)
                       (not G)
                       (not H)
                       (not I)
                       (not J)
                       (not K)
                       (not L)
                       (not M)
                       N)
                  (and (not C)
                       (not D)
                       (not E)
                       (not F)
                       (not G)
                       (not H)
                       (not I)
                       (not J)
                       (not K)
                       (not L)
                       M
                       (not N))
                  (and (not C)
                       (not D)
                       (not E)
                       (not F)
                       (not G)
                       (not H)
                       (not I)
                       (not J)
                       (not K)
                       L
                       (not M)
                       (not N))
                  (and (not C)
                       (not D)
                       (not E)
                       (not F)
                       (not G)
                       (not H)
                       (not I)
                       (not J)
                       K
                       (not L)
                       (not M)
                       (not N))
                  (and (not C)
                       (not D)
                       (not E)
                       (not F)
                       (not G)
                       (not H)
                       (not I)
                       J
                       (not K)
                       (not L)
                       (not M)
                       (not N))
                  (and (not C)
                       (not D)
                       (not E)
                       (not F)
                       (not G)
                       (not H)
                       I
                       (not J)
                       (not K)
                       (not L)
                       (not M)
                       (not N))
                  (and (not C)
                       (not D)
                       (not E)
                       (not F)
                       (not G)
                       H
                       (not I)
                       (not J)
                       (not K)
                       (not L)
                       (not M)
                       (not N))
                  (and (not C)
                       (not D)
                       (not E)
                       (not F)
                       G
                       (not H)
                       (not I)
                       (not J)
                       (not K)
                       (not L)
                       (not M)
                       (not N))
                  (and (not C)
                       (not D)
                       (not E)
                       F
                       (not G)
                       (not H)
                       (not I)
                       (not J)
                       (not K)
                       (not L)
                       (not M)
                       (not N))
                  (and (not C)
                       (not D)
                       E
                       (not F)
                       (not G)
                       (not H)
                       (not I)
                       (not J)
                       (not K)
                       (not L)
                       (not M)
                       (not N))
                  (and (not C)
                       D
                       (not E)
                       (not F)
                       (not G)
                       (not H)
                       (not I)
                       (not J)
                       (not K)
                       (not L)
                       (not M)
                       (not N))
                  (and C
                       (not D)
                       (not E)
                       (not F)
                       (not G)
                       (not H)
                       (not I)
                       (not J)
                       (not K)
                       (not L)
                       (not M)
                       (not N)))
              O)))
  (and (= H1 1)
       (= H1 I1)
       (= G1 Y2)
       (= F1 0)
       (= F1 G1)
       (= E1 X2)
       (= D1 0)
       (= D1 E1)
       (= C1 Q2)
       (= B1 0)
       (= B1 C1)
       (= A1 P2)
       (= Z 0)
       (= Z A1)
       (= Y O2)
       (= X 0)
       (= X Y)
       (= W N2)
       (= V 0)
       (= V W)
       (= U 0)
       (= T M2)
       (= T U)
       (= S 0)
       (= R L2)
       (= R S)
       a!1
       (= (or (not B) (not K2)) A3)
       (= Q K2)
       (= P Q)
       (= A O)
       (= A B)
       (= P (<= 2 I1))
       (or (not N) (= E2 I3))
       (or (not N) (= Z1 J3))
       (or (not M) (= J2 M3))
       (or M (= C2 E2))
       (or (not M) (= C2 D2))
       (or (not L) (= S2 N3))
       (or (not L) (= F2 G2))
       (or L (= C2 F2))
       (or (not K) (= W2 P3))
       (or K (= H2 J2))
       (or (not K) (= H2 I2))
       (or J (= U2 W2))
       (or (not J) (= U2 V2))
       (or (not J) (= R2 T2))
       (or J (= R2 S2))
       (or (not I) (= D3 E3))
       (or I (= U2 D3))
       (or (not I) (= L1 F3))
       (or I (= L1 F2))
       (or H (= B3 D3))
       (or (not H) (= B3 C3))
       (or (not H) (= N1 O3))
       (or (not G) (= R1 G3))
       (or G (= J1 L1))
       (or (not G) (= J1 K1))
       (or F (= P1 R1))
       (or (not F) (= P1 Q1))
       (or (not F) (= M1 O1))
       (or F (= M1 N1))
       (or (not E) (= V1 H3))
       (or (not E) (= S1 T1))
       (or E (= P1 S1))
       (or (not D) (= K3 L3))
       (or (not D) (= A2 B2))
       (or D (= X1 A2))
       (or C (= X1 Z1))
       (or (not C) (= X1 Y1))
       (or (not C) (= U1 W1))
       (or C (= U1 V1))
       (= I1 Z2)))
      )
      (state A
       B
       C
       D
       E
       F
       G
       H
       I
       J
       K
       L
       M
       N
       O
       P
       Q
       R
       S
       T
       U
       V
       W
       X
       Y
       Z
       A1
       B1
       C1
       D1
       E1
       F1
       G1
       H1
       I1
       J1
       K1
       L1
       M1
       N1
       O1
       P1
       Q1
       R1
       S1
       T1
       U1
       V1
       W1
       X1
       Y1
       Z1
       A2
       B2
       C2
       D2
       E2
       F2
       G2
       H2
       I2
       J2
       K2
       L2
       M2
       N2
       O2
       P2
       Q2
       R2
       S2
       T2
       U2
       V2
       W2
       X2
       Y2
       Z2
       A3
       B3
       C3
       D3
       E3
       F3
       G3
       H3
       I3
       J3
       K3
       L3
       M3
       N3
       O3
       P3
       Q3
       R3
       S3
       T3
       U3
       V3
       W3
       X3
       Y3
       Z3
       A4
       B4)
    )
  )
)
(assert
  (forall ( (A Bool) (B Bool) (C Bool) (D Bool) (E Bool) (F Bool) (G Bool) (H Bool) (I Bool) (J Bool) (K Bool) (L Bool) (M Bool) (N Bool) (O Bool) (P Bool) (Q Bool) (R Int) (S Int) (T Int) (U Int) (V Int) (W Int) (X Int) (Y Int) (Z Int) (A1 Int) (B1 Int) (C1 Int) (D1 Int) (E1 Int) (F1 Int) (G1 Int) (H1 Int) (I1 Int) (J1 Int) (K1 Int) (L1 Int) (M1 Int) (N1 Int) (O1 Int) (P1 Int) (Q1 Int) (R1 Int) (S1 Int) (T1 Int) (U1 Int) (V1 Int) (W1 Int) (X1 Int) (Y1 Int) (Z1 Int) (A2 Int) (B2 Int) (C2 Int) (D2 Int) (E2 Int) (F2 Int) (G2 Int) (H2 Int) (I2 Int) (J2 Int) (K2 Bool) (L2 Int) (M2 Int) (N2 Int) (O2 Int) (P2 Int) (Q2 Int) (R2 Int) (S2 Int) (T2 Int) (U2 Int) (V2 Int) (W2 Int) (X2 Int) (Y2 Int) (Z2 Int) (A3 Bool) (B3 Int) (C3 Int) (D3 Int) (E3 Int) (F3 Int) (G3 Int) (H3 Int) (I3 Int) (J3 Int) (K3 Int) (L3 Int) (M3 Int) (N3 Int) (O3 Int) (P3 Int) (Q3 Bool) (R3 Bool) (S3 Bool) (T3 Bool) (U3 Bool) (V3 Bool) (W3 Bool) (X3 Bool) (Y3 Bool) (Z3 Bool) (A4 Bool) (B4 Bool) (C4 Bool) (D4 Bool) (E4 Bool) (F4 Bool) (G4 Bool) (H4 Bool) (I4 Bool) (J4 Bool) (K4 Bool) (L4 Bool) (M4 Bool) (N4 Bool) (O4 Bool) (P4 Bool) (Q4 Bool) (R4 Bool) (S4 Bool) (T4 Int) (U4 Int) (V4 Int) (W4 Int) (X4 Int) (Y4 Int) (Z4 Int) (A5 Int) (B5 Int) (C5 Int) (D5 Int) (E5 Int) (F5 Int) (G5 Int) (H5 Int) (I5 Int) (J5 Int) (K5 Int) (L5 Int) (M5 Int) (N5 Int) (O5 Int) (P5 Int) (Q5 Int) (R5 Int) (S5 Int) (T5 Int) (U5 Int) (V5 Int) (W5 Int) (X5 Int) (Y5 Int) (Z5 Int) (A6 Int) (B6 Int) (C6 Int) (D6 Int) (E6 Int) (F6 Int) (G6 Int) (H6 Int) (I6 Int) (J6 Int) (K6 Int) (L6 Int) (M6 Bool) (N6 Int) (O6 Int) (P6 Int) (Q6 Int) (R6 Int) (S6 Int) (T6 Int) (U6 Int) (V6 Int) (W6 Int) (X6 Int) (Y6 Int) (Z6 Int) (A7 Int) (B7 Int) (C7 Bool) (D7 Int) (E7 Int) (F7 Int) (G7 Int) (H7 Int) (I7 Int) (J7 Bool) (K7 Bool) (L7 Bool) (M7 Bool) (N7 Bool) (O7 Bool) (P7 Bool) (Q7 Bool) (R7 Bool) (S7 Bool) (T7 Bool) (U7 Bool) (V7 Int) (W7 Int) (X7 Int) (Y7 Int) (Z7 Int) (A8 Int) (B8 Int) (C8 Int) (D8 Int) ) 
    (=>
      (and
        (state A
       B
       C
       D
       E
       F
       G
       H
       I
       J
       K
       L
       M
       N
       O
       P
       Q
       R
       S
       T
       U
       V
       W
       X
       Y
       Z
       A1
       B1
       C1
       D1
       E1
       F1
       G1
       H1
       I1
       J1
       K1
       L1
       M1
       N1
       O1
       P1
       Q1
       R1
       S1
       T1
       U1
       V1
       W1
       X1
       Y1
       Z1
       A2
       B2
       C2
       D2
       E2
       F2
       G2
       H2
       I2
       J2
       K2
       L2
       M2
       N2
       O2
       P2
       Q2
       R2
       S2
       T2
       U2
       V2
       W2
       X2
       Y2
       Z2
       A3
       B3
       C3
       D3
       E3
       F3
       G3
       H3
       I3
       J3
       K3
       L3
       M3
       N3
       O3
       P3
       Q3
       R3
       S3
       T3
       U3
       V3
       W3
       X3
       Y3
       Z3
       A4
       B4)
        (let ((a!1 (= (or (and (not C)
                       (not D)
                       (not E)
                       (not F)
                       (not G)
                       (not H)
                       (not I)
                       (not J)
                       (not K)
                       (not L)
                       (not M)
                       (not N))
                  (and (not C)
                       (not D)
                       (not E)
                       (not F)
                       (not G)
                       (not H)
                       (not I)
                       (not J)
                       (not K)
                       (not L)
                       (not M)
                       N)
                  (and (not C)
                       (not D)
                       (not E)
                       (not F)
                       (not G)
                       (not H)
                       (not I)
                       (not J)
                       (not K)
                       (not L)
                       M
                       (not N))
                  (and (not C)
                       (not D)
                       (not E)
                       (not F)
                       (not G)
                       (not H)
                       (not I)
                       (not J)
                       (not K)
                       L
                       (not M)
                       (not N))
                  (and (not C)
                       (not D)
                       (not E)
                       (not F)
                       (not G)
                       (not H)
                       (not I)
                       (not J)
                       K
                       (not L)
                       (not M)
                       (not N))
                  (and (not C)
                       (not D)
                       (not E)
                       (not F)
                       (not G)
                       (not H)
                       (not I)
                       J
                       (not K)
                       (not L)
                       (not M)
                       (not N))
                  (and (not C)
                       (not D)
                       (not E)
                       (not F)
                       (not G)
                       (not H)
                       I
                       (not J)
                       (not K)
                       (not L)
                       (not M)
                       (not N))
                  (and (not C)
                       (not D)
                       (not E)
                       (not F)
                       (not G)
                       H
                       (not I)
                       (not J)
                       (not K)
                       (not L)
                       (not M)
                       (not N))
                  (and (not C)
                       (not D)
                       (not E)
                       (not F)
                       G
                       (not H)
                       (not I)
                       (not J)
                       (not K)
                       (not L)
                       (not M)
                       (not N))
                  (and (not C)
                       (not D)
                       (not E)
                       F
                       (not G)
                       (not H)
                       (not I)
                       (not J)
                       (not K)
                       (not L)
                       (not M)
                       (not N))
                  (and (not C)
                       (not D)
                       E
                       (not F)
                       (not G)
                       (not H)
                       (not I)
                       (not J)
                       (not K)
                       (not L)
                       (not M)
                       (not N))
                  (and (not C)
                       D
                       (not E)
                       (not F)
                       (not G)
                       (not H)
                       (not I)
                       (not J)
                       (not K)
                       (not L)
                       (not M)
                       (not N))
                  (and C
                       (not D)
                       (not E)
                       (not F)
                       (not G)
                       (not H)
                       (not I)
                       (not J)
                       (not K)
                       (not L)
                       (not M)
                       (not N)))
              O))
      (a!2 (= (or (and (not E4)
                       (not F4)
                       (not G4)
                       (not H4)
                       (not I4)
                       (not J4)
                       (not K4)
                       (not L4)
                       (not M4)
                       (not N4)
                       (not O4)
                       (not P4))
                  (and (not E4)
                       (not F4)
                       (not G4)
                       (not H4)
                       (not I4)
                       (not J4)
                       (not K4)
                       (not L4)
                       (not M4)
                       (not N4)
                       (not O4)
                       P4)
                  (and (not E4)
                       (not F4)
                       (not G4)
                       (not H4)
                       (not I4)
                       (not J4)
                       (not K4)
                       (not L4)
                       (not M4)
                       (not N4)
                       O4
                       (not P4))
                  (and (not E4)
                       (not F4)
                       (not G4)
                       (not H4)
                       (not I4)
                       (not J4)
                       (not K4)
                       (not L4)
                       (not M4)
                       N4
                       (not O4)
                       (not P4))
                  (and (not E4)
                       (not F4)
                       (not G4)
                       (not H4)
                       (not I4)
                       (not J4)
                       (not K4)
                       (not L4)
                       M4
                       (not N4)
                       (not O4)
                       (not P4))
                  (and (not E4)
                       (not F4)
                       (not G4)
                       (not H4)
                       (not I4)
                       (not J4)
                       (not K4)
                       L4
                       (not M4)
                       (not N4)
                       (not O4)
                       (not P4))
                  (and (not E4)
                       (not F4)
                       (not G4)
                       (not H4)
                       (not I4)
                       (not J4)
                       K4
                       (not L4)
                       (not M4)
                       (not N4)
                       (not O4)
                       (not P4))
                  (and (not E4)
                       (not F4)
                       (not G4)
                       (not H4)
                       (not I4)
                       J4
                       (not K4)
                       (not L4)
                       (not M4)
                       (not N4)
                       (not O4)
                       (not P4))
                  (and (not E4)
                       (not F4)
                       (not G4)
                       (not H4)
                       I4
                       (not J4)
                       (not K4)
                       (not L4)
                       (not M4)
                       (not N4)
                       (not O4)
                       (not P4))
                  (and (not E4)
                       (not F4)
                       (not G4)
                       H4
                       (not I4)
                       (not J4)
                       (not K4)
                       (not L4)
                       (not M4)
                       (not N4)
                       (not O4)
                       (not P4))
                  (and (not E4)
                       (not F4)
                       G4
                       (not H4)
                       (not I4)
                       (not J4)
                       (not K4)
                       (not L4)
                       (not M4)
                       (not N4)
                       (not O4)
                       (not P4))
                  (and (not E4)
                       F4
                       (not G4)
                       (not H4)
                       (not I4)
                       (not J4)
                       (not K4)
                       (not L4)
                       (not M4)
                       (not N4)
                       (not O4)
                       (not P4))
                  (and E4
                       (not F4)
                       (not G4)
                       (not H4)
                       (not I4)
                       (not J4)
                       (not K4)
                       (not L4)
                       (not M4)
                       (not N4)
                       (not O4)
                       (not P4)))
              Q4))
      (a!3 (or (not R7) (= (+ C1 (* (- 1) R5)) 1)))
      (a!4 (or (not R7) (= (+ A1 (* (- 1) Q5)) (- 1))))
      (a!5 (or (not Q7) (= (+ C1 (* (- 1) Z7)) 1)))
      (a!6 (or (not Q7) (= (+ R (* (- 1) L5)) (- 1))))
      (a!7 (or (not P7) (= (+ A1 (* (- 1) Y7)) 1)))
      (a!8 (or (not P7) (= (+ Y (* (- 1) D7)) (- 1))))
      (a!9 (or (not O7) (= (+ Y (* (- 1) G7)) 1)))
      (a!10 (or (not O7) (= (+ R (* (- 1) H7)) (- 1))))
      (a!11 (or (not N7) (= (+ Y (* (- 1) W6)) 1)))
      (a!12 (or (not N7) (= (+ W (* (- 1) V6)) (- 1))))
      (a!13 (or (not M7) (= (+ Y (* (- 1) X7)) 1)))
      (a!14 (or (not M7) (= (+ T (* (- 1) J6)) (- 1))))
      (a!15 (or (not L7) (= (+ W (* (- 1) W7)) 1)))
      (a!16 (or (not L7) (= (+ R (* (- 1) H6)) (- 1))))
      (a!17 (or (not K7) (= (+ T (* (- 1) V7)) 1)))
      (a!18 (or (not K7) (= (+ R (* (- 1) E6)) (- 1))))
      (a!19 (or (not J7) (= (+ G1 (* (- 1) B8)) (- 1))))
      (a!20 (or (not J7) (= (+ R (* (- 1) D8)) 1)))
      (a!21 (or (not U7) (= (+ I1 (* (- 1) C8)) 1)))
      (a!22 (or (not U7) (= (+ G1 (* (- 1) C6)) (- 1))))
      (a!23 (or (not T7) (= (+ G1 (* (- 1) Z5)) 1)))
      (a!24 (or (not T7) (= (+ E1 (* (- 1) Y5)) (- 1))))
      (a!25 (or (not S7) (= (+ E1 (* (- 1) A8)) 1)))
      (a!26 (or (not S7) (= (+ C1 (* (- 1) U5)) (- 1)))))
  (and (= H1 I1)
       (= G1 Y2)
       (= F1 G1)
       (= E1 X2)
       (= D1 E1)
       (= C1 Q2)
       (= B1 C1)
       (= A1 P2)
       (= Z A1)
       (= Y O2)
       (= X Y)
       (= W N2)
       (= V W)
       (= T M2)
       (= T U)
       (= R L2)
       (= R S)
       (= K5 I7)
       (= J5 B7)
       (= J5 K5)
       (= I5 D6)
       (= H5 A7)
       (= H5 I5)
       (= G5 X5)
       (= F5 Z6)
       (= F5 G5)
       (= E5 V5)
       (= D5 S6)
       (= D5 E5)
       (= C5 P5)
       (= B5 R6)
       (= B5 C5)
       (= A5 E7)
       (= Z4 Q6)
       (= Z4 A5)
       (= Y4 U6)
       (= X4 P6)
       (= X4 Y4)
       (= W4 O6)
       (= V4 K6)
       (= V4 W4)
       (= U4 N6)
       (= T4 M5)
       (= T4 U4)
       (= (<= 1 I1) U7)
       (= (<= 1 G1) T7)
       (= (<= 1 E1) S7)
       (= (<= 1 C1) R7)
       (= (<= 1 C1) Q7)
       (= (<= 1 A1) P7)
       (= (<= 1 Y) O7)
       (= (<= 1 Y) N7)
       (= (<= 1 Y) M7)
       (= (<= 1 W) L7)
       (= (<= 1 T) K7)
       (= (<= 1 R) J7)
       a!1
       a!2
       (= (or (not B) (not K2)) A3)
       (= (or (not C4) (not M6)) C7)
       (= Q K2)
       (= P Q)
       (= A B)
       (= R4 M6)
       (= R4 S4)
       (= D4 (and Q4 B))
       (= C4 D4)
       (= P (<= 2 I1))
       (= S4 (<= 2 J5))
       a!3
       a!4
       (or R7 (= C1 R5))
       (or R7 (= A1 Q5))
       a!5
       a!6
       (or Q7 (= C1 Z7))
       (or Q7 (= R L5))
       a!7
       a!8
       (or P7 (= A1 Y7))
       (or P7 (= Y D7))
       a!9
       a!10
       (or O7 (= Y G7))
       (or O7 (= R H7))
       a!11
       a!12
       (or N7 (= Y W6))
       (or N7 (= W V6))
       a!13
       a!14
       (or M7 (= Y X7))
       (or M7 (= T J6))
       a!15
       a!16
       (or L7 (= W W7))
       (or L7 (= R H6))
       a!17
       a!18
       (or K7 (= T V7))
       (or K7 (= R E6))
       a!19
       a!20
       (or J7 (= G1 B8))
       (or J7 (= R D8))
       (or M (= C2 E2))
       (or (not M) (= C2 D2))
       (or (not L) (= F2 G2))
       (or L (= C2 F2))
       (or K (= H2 J2))
       (or (not K) (= H2 I2))
       (or J (= U2 W2))
       (or (not J) (= U2 V2))
       (or (not J) (= R2 T2))
       (or J (= R2 S2))
       (or (not I) (= D3 E3))
       (or I (= U2 D3))
       (or (not I) (= L1 F3))
       (or I (= L1 F2))
       (or H (= B3 D3))
       (or (not H) (= B3 C3))
       (or G (= J1 L1))
       (or (not G) (= J1 K1))
       (or F (= P1 R1))
       (or (not F) (= P1 Q1))
       (or (not F) (= M1 O1))
       (or F (= M1 N1))
       (or (not E) (= S1 T1))
       (or E (= P1 S1))
       (or (not D) (= A2 B2))
       (or D (= X1 A2))
       (or C (= X1 Z1))
       (or (not C) (= X1 Y1))
       (or (not C) (= U1 W1))
       (or C (= U1 V1))
       a!21
       a!22
       (or U7 (= I1 C8))
       (or U7 (= G1 C6))
       a!23
       a!24
       (or T7 (= G1 Z5))
       (or T7 (= E1 Y5))
       a!25
       a!26
       (or S7 (= E1 A8))
       (or S7 (= C1 U5))
       (or P4 (= G1 B6))
       (or P4 (= R G6))
       (or (not P4) (= G6 D8))
       (or (not P4) (= B6 B8))
       (or O4 (= T L6))
       (or (not O4) (= L6 V7))
       (or O4 (= F6 G6))
       (or (not O4) (= E6 F6))
       (or N4 (= W T6))
       (or (not N4) (= T6 W7))
       (or (not N4) (= H6 I6))
       (or N4 (= F6 I6))
       (or M4 (= Y Y6))
       (or (not M4) (= Y6 X7))
       (or M4 (= K6 L6))
       (or (not M4) (= J6 K6))
       (or L4 (= X6 Y6))
       (or (not L4) (= W6 X6))
       (or (not L4) (= U6 V6))
       (or L4 (= T6 U6))
       (or (not K4) (= F7 G7))
       (or K4 (= X6 F7))
       (or (not K4) (= N5 H7))
       (or K4 (= N5 I6))
       (or J4 (= A1 O5))
       (or J4 (= E7 F7))
       (or (not J4) (= D7 E7))
       (or (not J4) (= O5 Y7))
       (or I4 (= C1 T5))
       (or (not I4) (= T5 Z7))
       (or I4 (= M5 N5))
       (or (not I4) (= L5 M5))
       (or H4 (= S5 T5))
       (or (not H4) (= R5 S5))
       (or (not H4) (= P5 Q5))
       (or H4 (= O5 P5))
       (or G4 (= E1 W5))
       (or (not G4) (= W5 A8))
       (or (not G4) (= U5 V5))
       (or G4 (= S5 V5))
       (or F4 (= I1 I7))
       (or (not F4) (= I7 C8))
       (or (not F4) (= C6 D6))
       (or F4 (= A6 D6))
       (or E4 (= A6 B6))
       (or (not E4) (= Z5 A6))
       (or (not E4) (= X5 Y5))
       (or E4 (= W5 X5))
       (= I1 Z2)))
      )
      (state D4
       C4
       E4
       F4
       G4
       H4
       I4
       J4
       K4
       L4
       M4
       N4
       O4
       P4
       Q4
       S4
       R4
       U4
       T4
       W4
       V4
       Y4
       X4
       A5
       Z4
       C5
       B5
       E5
       D5
       G5
       F5
       I5
       H5
       K5
       J5
       M5
       L5
       N5
       P5
       O5
       Q5
       S5
       R5
       T5
       V5
       U5
       X5
       W5
       Y5
       A6
       Z5
       B6
       D6
       C6
       F6
       E6
       G6
       I6
       H6
       K6
       J6
       L6
       M6
       N6
       O6
       P6
       Q6
       R6
       S6
       U6
       T6
       V6
       X6
       W6
       Y6
       Z6
       A7
       B7
       C7
       E7
       D7
       F7
       G7
       H7
       Z7
       A8
       D8
       B8
       I7
       C8
       V7
       W7
       Y7
       X7
       U7
       T7
       S7
       R7
       Q7
       P7
       O7
       N7
       M7
       L7
       K7
       J7)
    )
  )
)
(assert
  (forall ( (A Bool) (B Bool) (C Bool) (D Bool) (E Bool) (F Bool) (G Bool) (H Bool) (I Bool) (J Bool) (K Bool) (L Bool) (M Bool) (N Bool) (O Bool) (P Bool) (Q Bool) (R Int) (S Int) (T Int) (U Int) (V Int) (W Int) (X Int) (Y Int) (Z Int) (A1 Int) (B1 Int) (C1 Int) (D1 Int) (E1 Int) (F1 Int) (G1 Int) (H1 Int) (I1 Int) (J1 Int) (K1 Int) (L1 Int) (M1 Int) (N1 Int) (O1 Int) (P1 Int) (Q1 Int) (R1 Int) (S1 Int) (T1 Int) (U1 Int) (V1 Int) (W1 Int) (X1 Int) (Y1 Int) (Z1 Int) (A2 Int) (B2 Int) (C2 Int) (D2 Int) (E2 Int) (F2 Int) (G2 Int) (H2 Int) (I2 Int) (J2 Int) (K2 Bool) (L2 Int) (M2 Int) (N2 Int) (O2 Int) (P2 Int) (Q2 Int) (R2 Int) (S2 Int) (T2 Int) (U2 Int) (V2 Int) (W2 Int) (X2 Int) (Y2 Int) (Z2 Int) (A3 Bool) (B3 Int) (C3 Int) (D3 Int) (E3 Int) (F3 Int) (G3 Int) (H3 Int) (I3 Int) (J3 Int) (K3 Int) (L3 Int) (M3 Int) (N3 Int) (O3 Int) (P3 Int) (Q3 Bool) (R3 Bool) (S3 Bool) (T3 Bool) (U3 Bool) (V3 Bool) (W3 Bool) (X3 Bool) (Y3 Bool) (Z3 Bool) (A4 Bool) (B4 Bool) ) 
    (=>
      (and
        (state A
       B
       C
       D
       E
       F
       G
       H
       I
       J
       K
       L
       M
       N
       O
       P
       Q
       R
       S
       T
       U
       V
       W
       X
       Y
       Z
       A1
       B1
       C1
       D1
       E1
       F1
       G1
       H1
       I1
       J1
       K1
       L1
       M1
       N1
       O1
       P1
       Q1
       R1
       S1
       T1
       U1
       V1
       W1
       X1
       Y1
       Z1
       A2
       B2
       C2
       D2
       E2
       F2
       G2
       H2
       I2
       J2
       K2
       L2
       M2
       N2
       O2
       P2
       Q2
       R2
       S2
       T2
       U2
       V2
       W2
       X2
       Y2
       Z2
       A3
       B3
       C3
       D3
       E3
       F3
       G3
       H3
       I3
       J3
       K3
       L3
       M3
       N3
       O3
       P3
       Q3
       R3
       S3
       T3
       U3
       V3
       W3
       X3
       Y3
       Z3
       A4
       B4)
        true
      )
      false
    )
  )
)

(check-sat)
(exit)
